2
100 2
40
17 1 90
68 1 76
14 1 68
22 1 76
38 1 83
29 1 87
40 1 100
39 1 83
69 1 77
1 1 99
77 1 57
17 1 100
13 1 94
90 1 27
27 1 84
56 1 83
78 1 16
31 1 78
38 1 71
8 1 86
90 1 3
38 1 79
10 1 66
21 1 92
14 1 66
7 1 89
45 1 68
46 1 70
4 1 73
38 1 72
41 1 80
82 1 89
6 1 88
30 1 98
99 1 48
30 1 87
19 1 77
83 1 95
78 1 37
40 1 91
